(set-logic QF_S)
(declare-fun sigmaStar_0 () String)
(declare-fun literal_2 () String)
(declare-fun x_3 () String)
(declare-fun literal_4 () String)
(declare-fun x_5 () String)
(declare-fun literal_6 () String)
(declare-fun x_7 () String)
(declare-fun len_literal_2 () Int)
(declare-fun len_x_3 () Int)
(declare-fun len_x_5 () Int)
(declare-fun substr_x_3 () String)
(declare-fun substr_x_5 () String)
(declare-fun replaced_x_5 () String)
(assert (= literal_2 "\x3c\x70\x3e"))
(assert (= x_3 (str.++ literal_2 sigmaStar_0)))
(assert (= literal_4 "\x20\x2d\x20\x3c\x61\x20\x68\x72\x65\x66\x3d\x5c\x22\x6d\x6f\x64\x5f\x70\x6c\x75\x67\x69\x6e\x73\x2e\x70\x68\x70\x3f\x61\x63\x74\x69\x6f\x6e\x3d\x75\x6e\x69\x6e\x73\x74\x61\x6c\x6c\x26\x70\x6c\x75\x67\x69\x6e\x5f\x66\x69\x6c\x65\x3d"))
(assert (= x_5 (str.++ x_3 literal_4)))
(assert (= literal_6 "\x22\x20\x6f\x6e\x63\x6c\x69\x63\x6b\x3d\x22\x72\x65\x74\x75\x72\x6e\x20\x63\x6f\x6e\x66\x69\x72\x6d\x53\x75\x62\x6d\x69\x74\x28\x29\x22\x3e\x55\x6e\x69\x6e\x73\x74\x61\x6c\x6c\x3c\x2f\x61\x3e\x20\x5c\x6e"))
(assert (= x_7 (str.++ x_5 literal_6)))
(assert (str.in-re x_7 (re.++ (re.* re.allchar) (re.++ (str.to-re "\x5c\x3c\x53\x43\x52\x49\x50\x54") (re.* re.allchar)))))
(assert (= len_literal_2 (str.len literal_2)))
(assert (= len_x_3 (str.len x_3)))
(assert (= len_x_5 (str.len x_5)))
(assert (= substr_x_3 (str.substr x_3 0 len_literal_2)))
(assert (= substr_x_5 (str.substr x_5 len_literal_2 len_x_5)))
(assert (= replaced_x_5 (str.replace x_5 literal_2 "REPLACED")))
(assert (str.contains x_7 literal_6))
(assert (str.prefixof literal_2 x_3))
(assert (str.suffixof literal_6 x_7))
(assert (not (= (str.indexof x_7 literal_6 0) -1)))
(assert (> (str.len x_7) 0))
(assert (= (str.to.int (str.at x_7 0) 16) (str.to.int "\x3c" 16)))
(assert (= (int.to.str 10) "10"))
(check-sat)
(exit)